data/solutions/planning/wellformed/intermediate/weighting/wellformed_intermediate_instance45_gurobi.sol
Elapsed time: 7.73
Nodes explored: 2815
Nodes left: 993
Relative gap: 0.0
Upper bound: 142735319.0
Lower bound: 142735319
C[0]=34856.0
C[1]=34856.0
C[2]=34856.0
C[3]=34856.0
C[4]=34856.0
C[5]=34856.0
C[6]=34856.0
C[7]=34856.0
C[8]=34856.0
C[9]=34856.0
C[10]=34856.0
C[11]=34855.0
y[0]=6
y[1]=10
y[2]=5
y[3]=0
y[4]=1
y[5]=5
y[6]=5
y[7]=3
y[8]=1
y[9]=8
y[10]=1
y[11]=8
y[12]=0
y[13]=10
y[14]=6
y[15]=7
y[16]=4
y[17]=4
y[18]=11
y[19]=10
y[20]=11
y[21]=6
y[22]=8
y[23]=5
y[24]=5
y[25]=3
y[26]=1
y[27]=1
y[28]=3
y[29]=7
y[30]=8
y[31]=2
y[32]=3
y[33]=3
y[34]=8
y[35]=2
y[36]=1
y[37]=1
y[38]=7
y[39]=1
y[40]=10
y[41]=9
y[42]=11
y[43]=4
y[44]=9
y[45]=3
y[46]=10
y[47]=4
y[48]=1
y[49]=11
y[50]=8
y[51]=7
y[52]=7
y[53]=1
y[54]=10
y[55]=7
y[56]=8
y[57]=10
y[58]=1
y[59]=3
y[60]=4
y[61]=11
y[62]=6
y[63]=3
y[64]=5
y[65]=9
y[66]=9
y[67]=3
y[68]=8
y[69]=1
y[70]=2
y[71]=3
y[72]=6
y[73]=11
y[74]=11
y[75]=3
y[76]=8
y[77]=7
y[78]=4
y[79]=2
y[80]=6
y[81]=11
y[82]=3
y[83]=1
y[84]=0
y[85]=9
y[86]=0
y[87]=7
y[88]=9
y[89]=9
y[90]=1
y[91]=9
y[92]=9
y[93]=7
y[94]=6
y[95]=7
y[96]=1
y[97]=6
y[98]=10
y[99]=3
y[100]=7
y[101]=2
y[102]=4
y[103]=1
y[104]=4
y[105]=6
y[106]=1
y[107]=7
y[108]=7
y[109]=10
y[110]=8
y[111]=9
y[112]=10
y[113]=6
y[114]=4
y[115]=4
y[116]=2
y[117]=2
y[118]=4
y[119]=8
y[120]=11
y[121]=1
y[122]=1
y[123]=4
y[124]=5
y[125]=1
y[126]=11
y[127]=0
y[128]=6
y[129]=9
y[130]=1
y[131]=5
y[132]=6
y[133]=4
y[134]=7
y[135]=3
y[136]=9
y[137]=6
y[138]=0
y[139]=2
y[140]=8
y[141]=11
y[142]=1
y[143]=5
y[144]=7
y[145]=2
y[146]=5
y[147]=6
y[148]=2
y[149]=9
y[150]=9
y[151]=2
y[152]=10
y[153]=8
y[154]=4
y[155]=7
y[156]=11
y[157]=8
y[158]=1
y[159]=1
y[160]=6
y[161]=0
y[162]=4
y[163]=10
y[164]=5
y[165]=1
y[166]=0
y[167]=9
y[168]=5
y[169]=0
y[170]=9
y[171]=3
y[172]=5
y[173]=10
y[174]=4
y[175]=1
y[176]=2
y[177]=5
y[178]=11
y[179]=4
y[180]=9
y[181]=10
y[182]=3
y[183]=10
y[184]=8
y[185]=5
y[186]=3
y[187]=0
y[188]=0
y[189]=0
y[190]=8
y[191]=0
y[192]=10
y[193]=1
y[194]=6
y[195]=2
y[196]=8
y[197]=9
y[198]=6
y[199]=0
y[200]=1
y[201]=5
y[202]=6
y[203]=5
y[204]=1
y[205]=9
y[206]=4
y[207]=2
y[208]=5
y[209]=9
y[210]=8
y[211]=5
y[212]=11
y[213]=9
y[214]=5
y[215]=10
y[216]=3
y[217]=2
y[218]=4
y[219]=3
y[220]=7
y[221]=3
y[222]=9
y[223]=10
y[224]=10
y[225]=7
y[226]=9
y[227]=9
y[228]=7
y[229]=4
y[230]=7
y[231]=9
y[232]=2
y[233]=4
y[234]=5
y[235]=3
y[236]=4
y[237]=7
y[238]=2
y[239]=3
y[240]=8
y[241]=1
y[242]=5
y[243]=4
y[244]=11
y[245]=7
y[246]=4
y[247]=7
y[248]=1
y[249]=10
y[250]=5
y[251]=1
y[252]=7
y[253]=5
y[254]=4
y[255]=1
y[256]=8
y[257]=1
y[258]=10
y[259]=2
y[260]=6
y[261]=5
y[262]=0
y[263]=4
y[264]=9
y[265]=7
y[266]=2
y[267]=6
y[268]=5
y[269]=1
y[270]=8
y[271]=11
y[272]=11
y[273]=2
y[274]=5
y[275]=0
y[276]=0
y[277]=1
y[278]=6
y[279]=9
y[280]=2
y[281]=3
y[282]=3
y[283]=5
y[284]=2
y[285]=6
y[286]=6
y[287]=9
y[288]=1
y[289]=3
y[290]=7
y[291]=1
y[292]=9
y[293]=5
y[294]=11
y[295]=10
y[296]=4
y[297]=3
y[298]=9
y[299]=5
y[300]=8
y[301]=9
y[302]=11
y[303]=2
y[304]=10
y[305]=10
y[306]=3
y[307]=9
y[308]=2
y[309]=0
y[310]=8
y[311]=7
y[312]=1
y[313]=6
y[314]=1
y[315]=2
y[316]=8
y[317]=5
y[318]=4
y[319]=10
y[320]=5
y[321]=8
y[322]=9
y[323]=11
y[324]=8
y[325]=9
y[326]=5
y[327]=2
y[328]=9
y[329]=4
y[330]=6
y[331]=0
y[332]=11
y[333]=7
y[334]=11
y[335]=8
y[336]=0
y[337]=8
y[338]=5
y[339]=10
y[340]=11
y[341]=7
y[342]=10
y[343]=10
y[344]=11
y[345]=6
y[346]=0
y[347]=1
y[348]=9
y[349]=9
y[350]=4
y[351]=0
y[352]=9
y[353]=10
y[354]=11
y[355]=3
y[356]=11
y[357]=3
y[358]=1
y[359]=4
y[360]=6
y[361]=9
y[362]=8
y[363]=8
y[364]=6
y[365]=5
y[366]=10
y[367]=2
y[368]=9
y[369]=1
y[370]=0
y[371]=3
y[372]=3
y[373]=11
y[374]=6
y[375]=6
y[376]=3
y[377]=9
y[378]=8
y[379]=2
y[380]=4
y[381]=3
y[382]=11
y[383]=0
y[384]=1
y[385]=11
y[386]=5
y[387]=5
y[388]=6
y[389]=6
y[390]=8
y[391]=1
y[392]=11
y[393]=0
y[394]=2
y[395]=0
y[396]=9
y[397]=11
y[398]=6
y[399]=3
